(set-option :print-success false)
(set-logic QF_UF)
(declare-sort x26 0)
(declare-sort x3 0)
(declare-fun x95 (x3 x3) x3)
(declare-fun x96 () x3)
(declare-fun x156 () x3)
(declare-fun x32 () x3)
(declare-fun x9 (x3 x3) x3)
(declare-fun x114 () x3)
(declare-fun x67 () x3)
(assert (and (= x32 (x95 x156 x156)) (and (= (x95 x32 x156) x96) (and (= (x95 x32 x96) x67) (= x114 (x95 x96 x67))))))
(assert (not (and (and (and (and (and (= x96 (x95 x32 x156)) (and (and (= x156 (x95 x96 x96)) (and (= x32 (x95 x96 x114)) (and (and (= x67 (x95 x96 x156)) (and (= x114 (x95 x114 x32)) (and (and (= x67 (x95 x114 x114)) (and (= x96 (x95 x114 x67)) (and (= x156 (x95 x114 x156)) (and (= x32 (x95 x67 x32)) (and (= x96 (x95 x67 x96)) (and (and (= (x95 x67 x67) x67) (and (= x114 (x95 x67 x156)) (and (= x67 (x95 x156 x32)) (and (and (= x96 (x95 x156 x114)) (and (= x156 (x95 x156 x67)) (= (x95 x156 x156) x32))) (= x114 (x95 x156 x96)))))) (= (x95 x67 x114) x156))))))) (= (x95 x114 x96) x32)))) (= (x95 x96 x67) x114)))) (= (x95 x96 x32) x96))) (= (x95 x32 x67) x32)) (= (x95 x32 x114) x114)) (= (x95 x32 x96) x67)) (= x156 (x95 x32 x32)))))
(assert (or (or (or (and (not (= (x95 x32 (x95 x114 x32)) x32)) (and (not (= x96 (x95 x96 (x95 x114 x96)))) (and (and (not (= (x95 x67 (x95 x114 x67)) x67)) (not (= (x95 x156 (x95 x114 x156)) x156))) (not (= x114 (x95 x114 (x95 x114 x114))))))) (or (and (and (and (and (not (= x156 (x95 x156 (x95 x67 x156)))) (not (= (x95 x67 (x95 x67 x67)) x67))) (not (= x114 (x95 x114 (x95 x67 x114))))) (not (= x96 (x95 x96 (x95 x67 x96))))) (not (= x32 (x95 x32 (x95 x67 x32))))) (and (not (= (x95 x32 (x95 x156 x32)) x32)) (and (not (= x96 (x95 x96 (x95 x156 x96)))) (and (not (= (x95 x114 (x95 x156 x114)) x114)) (and (not (= x156 (x95 x156 (x95 x156 x156)))) (not (= (x95 x67 (x95 x156 x67)) x67)))))))) (and (not (= x32 (x95 x32 (x95 x96 x32)))) (and (not (= (x95 x96 (x95 x96 x96)) x96)) (and (and (not (= x156 (x95 x156 (x95 x96 x156)))) (not (= x67 (x95 x67 (x95 x96 x67))))) (not (= x114 (x95 x114 (x95 x96 x114)))))))) (and (and (and (and (not (= (x95 x67 (x95 x32 x67)) x67)) (not (= (x95 x156 (x95 x32 x156)) x156))) (not (= x114 (x95 x114 (x95 x32 x114))))) (not (= x96 (x95 x96 (x95 x32 x96))))) (not (= x32 (x95 x32 (x95 x32 x32)))))))
(assert (or (and (not (= x32 (x95 (x95 x32 x32) x32))) (and (and (and (not (= (x95 (x95 x32 x156) x32) x156)) (not (= x67 (x95 (x95 x32 x67) x32)))) (not (= x114 (x95 (x95 x32 x114) x32)))) (not (= x96 (x95 (x95 x32 x96) x32))))) (or (and (and (not (= (x95 (x95 x96 x96) x96) x96)) (and (and (not (= (x95 (x95 x96 x156) x96) x156)) (not (= x67 (x95 (x95 x96 x67) x96)))) (not (= x114 (x95 (x95 x96 x114) x96))))) (not (= (x95 (x95 x96 x32) x96) x32))) (or (or (and (and (not (= x96 (x95 (x95 x67 x96) x67))) (and (not (= (x95 (x95 x67 x114) x67) x114)) (and (not (= x67 (x95 (x95 x67 x67) x67))) (not (= (x95 (x95 x67 x156) x67) x156))))) (not (= x32 (x95 (x95 x67 x32) x67)))) (and (not (= x32 (x95 (x95 x156 x32) x156))) (and (and (and (not (= (x95 (x95 x156 x156) x156) x156)) (not (= x67 (x95 (x95 x156 x67) x156)))) (not (= x114 (x95 (x95 x156 x114) x156)))) (not (= (x95 (x95 x156 x96) x156) x96))))) (and (not (= x32 (x95 (x95 x114 x32) x114))) (and (not (= x96 (x95 (x95 x114 x96) x114))) (and (not (= (x95 (x95 x114 x114) x114) x114)) (and (not (= (x95 (x95 x114 x156) x114) x156)) (not (= x67 (x95 (x95 x114 x67) x114)))))))))))
(assert (let ((x20 (x95 x67 x32)) (x143 (x95 x32 x67)) (x11 (x95 x32 x96)) (x152 (x95 x32 x32)) (x7 (x95 x156 x96)) (x149 (x95 x156 x32)) (x124 (x95 x114 x114)) (x102 (x95 x114 x156)) (x98 (x95 x156 x67)) (x141 (x95 x67 x114)) (x136 (x95 x156 x156)) (x71 (x95 x67 x96)) (x68 (x95 x156 x114)) (x153 (x95 x96 x156)) (x89 (x95 x96 x96)) (x42 (x95 x96 x32)) (x129 (x95 x96 x114)) (x29 (x95 x32 x114)) (x13 (x95 x114 x32)) (x120 (x95 x67 x156)) (x78 (x95 x32 x156)) (x65 (x95 x96 x67)) (x2 (x95 x67 x67)) (x58 (x95 x114 x96)) (x150 (x95 x114 x67))) (let ((x103 (= x96 x2)) (x22 (= x32 x58)) (x31 (= x96 x124)) (x4 (= x32 x98)) (x118 (= x98 x156)) (x116 (= x78 x32)) (x130 (= x20 x114)) (x146 (= x156 x141)) (x57 (= x102 x114)) (x24 (= x65 x156)) (x99 (= x20 x96)) (x52 (= x67 x152)) (x63 (= x156 x42)) (x61 (= x13 x114)) (x105 (= x153 x67)) (x106 (= x96 x141)) (x49 (= x96 x58)) (x23 (= x96 x29)) (x148 (= x32 x89)) (x59 (= x114 x42)) (x34 (= x67 x89)) (x1 (= x67 x124)) (x137 (= x32 x71)) (x111 (= x96 x13)) (x50 (= x141 x67)) (x51 (= x58 x67)) (x159 (= x67 x11)) (x28 (= x67 x20)) (x142 (= x71 x114)) (x8 (= x2 x67)) (x109 (= x7 x156)) (x72 (= x13 x156)) (x117 (= x114 x2)) (x86 (= x71 x96)) (x80 (= x65 x96)) (x54 (= x149 x96)) (x38 (= x150 x32)) (x108 (= x156 x129)) (x125 (= x68 x156)) (x21 (= x67 x29)) (x134 (= x58 x156)) (x88 (= x42 x67)) (x139 (= x156 x136)) (x158 (= x143 x67)) (x97 (= x42 x32)) (x132 (= x149 x67)) (x45 (= x156 x152)) (x62 (= x156 x102)) (x46 (= x96 x150)) (x154 (= x143 x32)) (x41 (= x141 x32)) (x131 (= x67 x13)) (x25 (= x114 x68)) (x70 (= x124 x32)) (x145 (= x114 x129)) (x39 (= x89 x114)) (x60 (= x96 x89)) (x110 (= x120 x156)) (x14 (= x96 x7)) (x127 (= x58 x114)) (x43 (= x2 x156)) (x113 (= x29 x156)) (x157 (= x141 x114)) (x37 (= x78 x67)) (x121 (= x150 x156)) (x94 (= x98 x114)) (x122 (= x156 x89)) (x101 (= x65 x114)) (x6 (= x136 x114)) (x55 (= x20 x32)) (x91 (= x68 x32)) (x47 (= x96 x152)) (x151 (= x96 x136)) (x133 (= x7 x114)) (x140 (= x156 x78)) (x93 (= x153 x96)) (x115 (= x114 x143)) (x84 (= x11 x156)) (x85 (= x67 x98)) (x147 (= x156 x71)) (x16 (= x65 x67)) (x48 (= x96 x129)) (x10 (= x114 x120)) (x100 (= x114 x153)) (x5 (= x143 x96)) (x90 (= x129 x32)) (x107 (= x32 x136)) (x123 (= x156 x143)) (x30 (= x32 x153)) (x112 (= x11 x114)) (x15 (= x32 x13)) (x18 (= x96 x78)) (x81 (= x67 x150)) (x92 (= x114 x149)) (x79 (= x102 x67)) (x76 (= x124 x156)) (x74 (= x149 x32)) (x87 (= x68 x67)) (x104 (= x102 x96)) (x77 (= x67 x136)) (x73 (= x20 x156)) (x155 (= x68 x96)) (x36 (= x32 x120)) (x126 (= x156 x149)) (x53 (= x124 x114)) (x119 (= x32 x65)) (x27 (= x67 x129)) (x19 (= x7 x67)) (x35 (= x11 x96)) (x75 (= x32 x152)) (x12 (= x32 x11)) (x138 (= x152 x114)) (x17 (= x96 x120)) (x66 (= x114 x78)) (x56 (= x114 x29)) (x83 (= x96 x42)) (x128 (= x67 x120)) (x33 (= x150 x114)) (x44 (= x2 x32)) (x69 (= x32 x29)) (x135 (= x102 x32)) (x40 (= x156 x153)) (x144 (= x7 x32)) (x82 (= x71 x67)) (x64 (= x98 x96))) (and (and (and (and (and (and (and (or (or (or x104 (or x17 x151)) x93) x18) (or (or (or x155 (or x64 x151)) x14) x54)) (and (and (or (or x133 (or (or x94 x6) x25)) x92) (or (or x100 (or (or x6 x10) x57)) x66)) (and (and (or x132 (or x19 (or (or x77 x85) x87))) (or (or (or (or x77 x128) x79) x105) x37)) (and (or (or x40 (or x62 (or x110 x139))) x140) (or (or x109 (or (or x118 x139) x125)) x126))))) (and (or (or (or x91 (or x107 x4)) x144) x74) (or (or x30 (or (or x36 x107) x135)) x116))) (and (and (or (or x137 (or x41 (or x44 x36))) x55) (or (or (or (or x4 x44) x38) x119) x154)) (and (and (and (or (or x101 (or (or x117 x94) x33)) x115) (or (or (or (or x117 x10) x157) x142) x130)) (and (and (or (or (or x121 (or x118 x43)) x24) x123) (or (or (or x146 (or x110 x43)) x147) x73)) (and (or x28 (or x82 (or x50 (or x8 x128)))) (or x158 (or (or x81 (or x8 x85)) x16))))) (and (or x99 (or x86 (or (or x17 x103) x106))) (or x5 (or (or (or x103 x64) x46) x80)))))) (and (and (or (or (or x70 (or x41 x91)) x90) x69) (or (or x22 (or (or x38 x135) x70)) x15)) (and (and (and (and (or (or x27 (or (or x87 x50) x1)) x21) (or (or (or x1 (or x79 x81)) x51) x131)) (and (or x113 (or (or (or x125 x146) x76) x108)) (or (or (or (or x121 x62) x76) x134) x72))) (and (or x61 (or (or (or x33 x57) x53) x127)) (or (or x145 (or (or x25 x157) x53)) x56))) (and (or (or (or (or x155 x106) x31) x48) x23) (or (or (or x31 (or x104 x46)) x49) x111))))) (and (and (or (or (or x90 (or x119 x30)) x148) x97) (or x12 (or x148 (or (or x144 x137) x22)))) (and (and (and (or x59 (or x39 (or x145 (or x101 x100)))) (or (or (or x127 (or x133 x142)) x39) x112)) (and (and (or x88 (or x34 (or (or x105 x16) x27))) (or (or x34 (or x51 (or x82 x19))) x159)) (and (or x63 (or x122 (or x108 (or x40 x24)))) (or x84 (or (or x134 (or x109 x147)) x122))))) (and (or (or (or x48 (or x80 x93)) x60) x83) (or x35 (or x60 (or x49 (or x14 x86)))))))) (and (and (or x75 (or (or (or x55 x74) x15) x97)) (or x75 (or x12 (or (or x116 x154) x69)))) (and (and (or (or (or (or x18 x5) x23) x35) x47) (or x47 (or x83 (or (or x54 x99) x111)))) (and (and (or x138 (or (or (or x130 x92) x61) x59)) (or (or (or (or x115 x66) x56) x112) x138)) (and (and (or x45 (or (or (or x126 x73) x72) x63)) (or x45 (or (or x113 (or x123 x140)) x84))) (and (or (or (or (or x28 x132) x131) x88) x52) (or (or x159 (or x21 (or x37 x158))) x52))))))))))
(assert (or (and (and (and (not (= (x95 (x95 x114 x32) x32) x114)) (and (not (= x156 (x95 (x95 x156 x32) x32))) (not (= x67 (x95 (x95 x67 x32) x32))))) (not (= (x95 (x95 x96 x32) x32) x96))) (not (= (x95 (x95 x32 x32) x32) x32))) (or (or (or (and (not (= x32 (x95 (x95 x32 x156) x156))) (and (and (and (not (= x156 (x95 (x95 x156 x156) x156))) (not (= (x95 (x95 x67 x156) x156) x67))) (not (= (x95 (x95 x114 x156) x156) x114))) (not (= (x95 (x95 x96 x156) x156) x96)))) (and (not (= x32 (x95 (x95 x32 x67) x67))) (and (not (= x96 (x95 (x95 x96 x67) x67))) (and (and (not (= (x95 (x95 x156 x67) x67) x156)) (not (= x67 (x95 (x95 x67 x67) x67)))) (not (= x114 (x95 (x95 x114 x67) x67))))))) (and (not (= (x95 (x95 x32 x114) x114) x32)) (and (not (= x96 (x95 (x95 x96 x114) x114))) (and (not (= x114 (x95 (x95 x114 x114) x114))) (and (not (= x156 (x95 (x95 x156 x114) x114))) (not (= x67 (x95 (x95 x67 x114) x114)))))))) (and (and (not (= x96 (x95 (x95 x96 x96) x96))) (and (and (not (= x67 (x95 (x95 x67 x96) x96))) (not (= (x95 (x95 x156 x96) x96) x156))) (not (= x114 (x95 (x95 x114 x96) x96))))) (not (= (x95 (x95 x32 x96) x96) x32))))))
(assert (let ((x128 (x95 x114 x96)) (x20 (x95 x67 x32)) (x98 (x95 x114 x156)) (x43 (x95 x67 x96)) (x102 (x95 x96 x67)) (x85 (x95 x114 x32)) (x8 (x95 x96 x32)) (x110 (x95 x32 x114)) (x68 (x95 x96 x156)) (x77 (x95 x67 x67)) (x7 (x95 x32 x156)) (x6 (x95 x67 x114)) (x141 (x95 x32 x96)) (x107 (x95 x96 x114)) (x151 (x95 x114 x114)) (x120 (x95 x114 x67)) (x139 (x95 x156 x156)) (x71 (x95 x156 x32)) (x136 (x95 x67 x156)) (x149 (x95 x156 x67)) (x78 (x95 x156 x114)) (x2 (x95 x96 x96)) (x118 (x95 x156 x96)) (x150 (x95 x32 x32)) (x153 (x95 x32 x67))) (and (and (and (not (= x150 x8)) (and (not (= x85 x150)) (and (not (= x85 x8)) (and (and (and (not (= x85 x20)) (and (not (= x71 x150)) (and (not (= x8 x71)) (and (not (= x71 x85)) (not (= x71 x20)))))) (not (= x20 x8))) (not (= x20 x150)))))) (and (and (and (and (and (not (= x153 x120)) (and (and (not (= x77 x153)) (and (and (not (= x77 x120)) (and (and (and (not (= x77 x149)) (not (= x120 x149))) (not (= x102 x149))) (not (= x149 x153)))) (not (= x102 x77)))) (not (= x120 x102)))) (not (= x153 x102))) (and (not (= x7 x68)) (and (not (= x98 x7)) (and (not (= x98 x68)) (and (and (and (not (= x136 x98)) (and (not (= x139 x7)) (and (not (= x68 x139)) (and (not (= x98 x139)) (not (= x139 x136)))))) (not (= x136 x68))) (not (= x136 x7))))))) (and (and (not (= x151 x110)) (and (and (not (= x6 x110)) (and (and (and (not (= x110 x78)) (and (and (not (= x6 x78)) (not (= x151 x78))) (not (= x78 x107)))) (not (= x151 x6))) (not (= x107 x6)))) (not (= x151 x107)))) (not (= x107 x110)))) (and (and (not (= x128 x141)) (and (and (not (= x141 x43)) (and (not (= x2 x43)) (and (and (and (and (not (= x118 x43)) (not (= x118 x128))) (not (= x118 x2))) (not (= x118 x141))) (not (= x128 x43))))) (not (= x2 x128)))) (not (= x141 x2))))) (and (and (and (and (and (and (not (= x71 x78)) (and (and (and (not (= x149 x118)) (and (and (not (= x71 x139)) (and (not (= x118 x139)) (and (not (= x139 x149)) (not (= x139 x78))))) (not (= x78 x149)))) (not (= x71 x149))) (not (= x78 x118)))) (not (= x118 x71))) (and (not (= x43 x20)) (and (not (= x20 x6)) (and (not (= x6 x43)) (and (and (not (= x43 x77)) (and (not (= x6 x77)) (and (not (= x20 x136)) (and (not (= x136 x43)) (and (not (= x6 x136)) (not (= x77 x136))))))) (not (= x20 x77))))))) (and (and (not (= x151 x85)) (and (and (and (and (not (= x120 x151)) (and (and (and (not (= x98 x120)) (not (= x98 x151))) (not (= x128 x98))) (not (= x98 x85)))) (not (= x120 x128))) (not (= x120 x85))) (not (= x128 x151)))) (not (= x128 x85)))) (and (and (and (not (= x107 x2)) (and (not (= x8 x102)) (and (and (and (not (= x68 x8)) (and (and (not (= x102 x68)) (not (= x107 x68))) (not (= x2 x68)))) (not (= x107 x102))) (not (= x2 x102))))) (not (= x8 x107))) (not (= x2 x8)))) (and (not (= x150 x141)) (and (not (= x150 x110)) (and (and (not (= x153 x150)) (and (and (and (not (= x150 x7)) (and (not (= x141 x7)) (and (not (= x110 x7)) (not (= x7 x153))))) (not (= x110 x153))) (not (= x153 x141)))) (not (= x110 x141)))))))))
(assert (or (and (and (not (= x32 (x95 x96 (x95 x32 x96)))) (and (and (not (= (x95 x67 (x95 x32 x67)) x32)) (not (= (x95 x156 (x95 x32 x156)) x32))) (not (= x32 (x95 x114 (x95 x32 x114)))))) (not (= x32 (x95 x32 (x95 x32 x32))))) (or (and (not (= (x95 x32 (x95 x96 x32)) x96)) (and (not (= x96 (x95 x96 (x95 x96 x96)))) (and (and (not (= (x95 x156 (x95 x96 x156)) x96)) (not (= x96 (x95 x67 (x95 x96 x67))))) (not (= (x95 x114 (x95 x96 x114)) x96))))) (or (and (not (= x114 (x95 x32 (x95 x114 x32)))) (and (not (= (x95 x96 (x95 x114 x96)) x114)) (and (and (not (= x114 (x95 x67 (x95 x114 x67)))) (not (= (x95 x156 (x95 x114 x156)) x114))) (not (= (x95 x114 (x95 x114 x114)) x114))))) (or (and (not (= x156 (x95 x32 (x95 x156 x32)))) (and (not (= x156 (x95 x96 (x95 x156 x96)))) (and (not (= (x95 x114 (x95 x156 x114)) x156)) (and (not (= x156 (x95 x67 (x95 x156 x67)))) (not (= (x95 x156 (x95 x156 x156)) x156)))))) (and (not (= x67 (x95 x32 (x95 x67 x32)))) (and (and (and (not (= x67 (x95 x67 (x95 x67 x67)))) (not (= x67 (x95 x156 (x95 x67 x156))))) (not (= (x95 x114 (x95 x67 x114)) x67))) (not (= (x95 x96 (x95 x67 x96)) x67)))))))))
(assert (let ((x110 (x95 x96 x156)) (x65 (x95 x32 x114)) (x139 (x95 x156 x156)) (x151 (x95 x67 x114)) (x120 (x95 x156 x67)) (x78 (x95 x156 x114)) (x2 (x95 x96 x114)) (x6 (x95 x114 x67)) (x141 (x95 x114 x96)) (x20 (x95 x32 x156)) (x94 (x95 x96 x32)) (x98 (x95 x114 x114)) (x136 (x95 x67 x67)) (x143 (x95 x114 x32)) (x7 (x95 x32 x32)) (x150 (x95 x67 x32)) (x118 (x95 x156 x96)) (x153 (x95 x114 x156)) (x8 (x95 x32 x67)) (x85 (x95 x156 x32)) (x43 (x95 x96 x67)) (x10 (x95 x32 x96)) (x128 (x95 x67 x96)) (x68 (x95 x96 x96)) (x77 (x95 x67 x156))) (let ((x117 (= x32 x7)) (x107 (= x98 x114)) (x71 (= x68 x96)) (x149 (= x139 x156)) (x102 (= x67 x136))) (and (and (and (and (and (or (= x156 (x95 x139 x156)) (not (= x156 (x95 x156 x139)))) (or (not (= (x95 x67 x136) x67)) (= (x95 x136 x67) x67))) (or (not (= x114 (x95 x114 x98))) (= x114 (x95 x98 x114)))) (or (not (= x96 (x95 x96 x68))) (= x96 (x95 x68 x96)))) (or (not (= x32 (x95 x32 x7))) (= x32 (x95 x7 x32)))) (or (or (or (and (and (= x10 x96) (not (= x32 x68))) (= x96 x94)) (or (and (and (not x71) x71) x71) (or (and (= x2 x96) (and (not (= x68 x114)) (= x141 x96))) (or (and (and (= x118 x96) (not (= x68 x156))) (= x96 x110)) (and (= x96 x43) (and (= x96 x128) (not (= x67 x68)))))))) (or (or (or (or (and (and (= x43 x67) (not (= x136 x96))) (= x128 x67)) (or (or (and (and (= x120 x67) (not (= x156 x136))) (= x77 x67)) (and x102 (and (not x102) x102))) (and (= x151 x67) (and (= x67 x6) (not (= x114 x136)))))) (and (= x67 x150) (and (not (= x32 x136)) (= x8 x67)))) (or (and (= x85 x156) (and (not (= x32 x139)) (= x20 x156))) (or (or (and (= x78 x156) (and (not (= x139 x114)) (= x156 x153))) (or (and (= x156 x120) (and (= x77 x156) (not (= x139 x67)))) (and (and x149 (not x149)) x149))) (and (= x156 x118) (and (= x156 x110) (not (= x96 x139))))))) (or (and (= x114 x143) (and (= x114 x65) (not (= x32 x98)))) (or (or (and x107 (and (not x107) x107)) (or (and (= x153 x114) (and (not (= x156 x98)) (= x114 x78))) (and (= x6 x114) (and (= x114 x151) (not (= x67 x98)))))) (and (= x114 x141) (and (not (= x96 x98)) (= x2 x114))))))) (or (or (or (and (= x32 x65) (and (not (= x7 x114)) (= x143 x32))) (or (and (and (= x32 x150) (not (= x67 x7))) (= x8 x32)) (and (and (= x32 x85) (not (= x156 x7))) (= x20 x32)))) (and (and (not (= x96 x7)) (= x32 x94)) (= x32 x10))) (and x117 (and (not x117) x117))))))))
(assert (let ((x139 (= (x95 x156 x156) x156)) (x120 (= x114 (x95 x114 x114))) (x153 (= x32 (x95 x32 x32))) (x98 (= (x95 x67 x67) x67)) (x102 (= x96 (x95 x96 x96)))) (let ((x77 (not x153)) (x7 (not x120)) (x149 (not x102)) (x136 (not x139)) (x68 (not x98))) (or (or (or (and (= x32 (x95 x32 x96)) x149) (or (and x7 (= x32 (x95 x32 x114))) (or (and x136 (= x32 (x95 x32 x156))) (and (= (x95 x32 x67) x32) x68)))) (and x77 x153)) (or (or (or (or (and (= (x95 x96 x114) x96) x7) (or (and x68 (= (x95 x96 x67) x96)) (and (= (x95 x96 x156) x96) x136))) (and x102 x149)) (and (= x96 (x95 x96 x32)) x77)) (or (or (or (or (and (= x67 (x95 x67 x96)) x149) (or (and (= (x95 x67 x114) x67) x7) (or (and x136 (= (x95 x67 x156) x67)) (and x68 x98)))) (and x77 (= x67 (x95 x67 x32)))) (or (or (and x149 (= x156 (x95 x156 x96))) (or (and x7 (= (x95 x156 x114) x156)) (or (and x139 x136) (and x68 (= x156 (x95 x156 x67)))))) (and x77 (= x156 (x95 x156 x32))))) (or (or (or (or (and (= (x95 x114 x67) x114) x68) (and (= (x95 x114 x156) x114) x136)) (and x7 x120)) (and (= x114 (x95 x114 x96)) x149)) (and x77 (= (x95 x114 x32) x114)))))))))
(assert (or (= (x95 x32 x32) x32) (or (= (x95 x96 x96) x96) (or (= (x95 x114 x114) x114) (or (= x67 (x95 x67 x67)) (= (x95 x156 x156) x156))))))
(assert (or (and (= x32 (x95 (x95 x32 x32) x32)) (and (and (and (= (x95 (x95 x67 x32) x32) x67) (= x156 (x95 (x95 x156 x32) x32))) (= x114 (x95 (x95 x114 x32) x32))) (= x96 (x95 (x95 x96 x32) x32)))) (or (and (= (x95 (x95 x32 x96) x96) x32) (and (= (x95 (x95 x96 x96) x96) x96) (and (= x114 (x95 (x95 x114 x96) x96)) (and (= x156 (x95 (x95 x156 x96) x96)) (= (x95 (x95 x67 x96) x96) x67))))) (or (and (= (x95 (x95 x32 x114) x114) x32) (and (and (and (= x156 (x95 (x95 x156 x114) x114)) (= x67 (x95 (x95 x67 x114) x114))) (= x114 (x95 (x95 x114 x114) x114))) (= x96 (x95 (x95 x96 x114) x114)))) (or (and (and (and (= x114 (x95 (x95 x114 x156) x156)) (and (= x67 (x95 (x95 x67 x156) x156)) (= (x95 (x95 x156 x156) x156) x156))) (= x96 (x95 (x95 x96 x156) x156))) (= (x95 (x95 x32 x156) x156) x32)) (and (= (x95 (x95 x32 x67) x67) x32) (and (and (= x114 (x95 (x95 x114 x67) x67)) (and (= x67 (x95 (x95 x67 x67) x67)) (= (x95 (x95 x156 x67) x67) x156))) (= (x95 (x95 x96 x67) x67) x96))))))))
(assert (let ((x98 (x95 x67 x67)) (x149 (x95 x32 x32)) (x136 (x95 x156 x156)) (x68 (x95 x114 x114)) (x7 (x95 x96 x96))) (let ((x120 (= x98 x67)) (x151 (= x114 x68)) (x110 (= x149 x32)) (x139 (= x156 x136)) (x107 (= x96 x7))) (let ((x153 (or (or (= x114 x7) (or x151 (or (= x114 x98) (= x114 x136)))) (= x149 x114))) (x77 (or (= x149 x156) (or (or (= x156 x68) (or (= x156 x98) x139)) (= x156 x7)))) (x6 (or x110 (or (= x7 x32) (or (or (= x136 x32) (= x32 x98)) (= x68 x32))))) (x78 (or (= x149 x96) (or x107 (or (= x96 x68) (or (= x96 x98) (= x136 x96)))))) (x102 (or (or (or (or (= x136 x67) x120) (= x68 x67)) (= x7 x67)) (= x149 x67)))) (and (and (and (and (and (and (or (not (= (x95 x67 x96) x67)) x78) (and (and (or x102 (not x120)) (or (not (= (x95 x67 x156) x67)) x77)) (or (not (= (x95 x67 x114) x67)) x153))) (or x6 (not (= x67 (x95 x67 x32))))) (and (or (not (= x156 (x95 x156 x32))) x6) (and (or (not (= (x95 x156 x96) x156)) x78) (and (and (or (not (= (x95 x156 x67) x156)) x102) (or x77 (not x139))) (or x153 (not (= (x95 x156 x114) x156))))))) (and (and (or (not (= (x95 x114 x96) x114)) x78) (and (and (or x77 (not (= (x95 x114 x156) x114))) (or x102 (not (= (x95 x114 x67) x114)))) (or x153 (not x151)))) (or (not (= (x95 x114 x32) x114)) x6))) (and (or (not (= x96 (x95 x96 x32))) x6) (and (and (or x153 (not (= x96 (x95 x96 x114)))) (and (or (not (= x96 (x95 x96 x156))) x77) (or (not (= x96 (x95 x96 x67))) x102))) (or (not x107) x78)))) (and (and (or x78 (not (= x32 (x95 x32 x96)))) (and (and (or (not (= x32 (x95 x32 x67))) x102) (or (not (= x32 (x95 x32 x156))) x77)) (or x153 (not (= x32 (x95 x32 x114)))))) (or x6 (not x110))))))))
(assert (let ((x68 (x95 x96 x96)) (x7 (x95 x32 x32)) (x98 (x95 x114 x114)) (x136 (x95 x67 x67)) (x139 (x95 x156 x156))) (or (and (not (= x32 x7)) (and (not (= x68 x32)) (and (and (not (= x139 x32)) (not (= x32 x136))) (not (= x32 x98))))) (or (or (and (not (= x114 x7)) (and (and (and (not (= x114 x139)) (not (= x136 x114))) (not (= x114 x98))) (not (= x114 x68)))) (or (and (not (= x7 x67)) (and (and (not (= x98 x67)) (and (not (= x136 x67)) (not (= x67 x139)))) (not (= x68 x67)))) (and (and (and (not (= x156 x98)) (and (not (= x156 x139)) (not (= x136 x156)))) (not (= x68 x156))) (not (= x156 x7))))) (and (not (= x96 x7)) (and (not (= x68 x96)) (and (not (= x96 x98)) (and (not (= x139 x96)) (not (= x96 x136))))))))))
(assert (or (or (or (and (not (= (x95 (x95 x32 x114) x32) x114)) (and (not (= x114 (x95 (x95 x96 x114) x96))) (and (not (= x114 (x95 (x95 x114 x114) x114))) (and (not (= (x95 (x95 x67 x114) x67) x114)) (not (= x114 (x95 (x95 x156 x114) x156))))))) (or (and (not (= (x95 (x95 x32 x67) x32) x67)) (and (and (and (not (= x67 (x95 (x95 x156 x67) x156))) (not (= (x95 (x95 x67 x67) x67) x67))) (not (= (x95 (x95 x114 x67) x114) x67))) (not (= x67 (x95 (x95 x96 x67) x96))))) (and (not (= x156 (x95 (x95 x32 x156) x32))) (and (and (not (= (x95 (x95 x114 x156) x114) x156)) (and (not (= x156 (x95 (x95 x156 x156) x156))) (not (= (x95 (x95 x67 x156) x67) x156)))) (not (= x156 (x95 (x95 x96 x156) x96))))))) (and (and (not (= (x95 (x95 x96 x96) x96) x96)) (and (not (= x96 (x95 (x95 x114 x96) x114))) (and (not (= (x95 (x95 x156 x96) x156) x96)) (not (= x96 (x95 (x95 x67 x96) x67)))))) (not (= x96 (x95 (x95 x32 x96) x32))))) (and (and (and (and (not (= x32 (x95 (x95 x67 x32) x67))) (not (= (x95 (x95 x156 x32) x156) x32))) (not (= x32 (x95 (x95 x114 x32) x114)))) (not (= x32 (x95 (x95 x96 x32) x96)))) (not (= x32 (x95 (x95 x32 x32) x32))))))
(assert (let ((x77 (x95 x67 x67)) (x139 (x95 x156 x156)) (x71 (x95 x156 x32)) (x151 (x95 x114 x114)) (x85 (x95 x114 x32)) (x107 (x95 x96 x114)) (x149 (x95 x156 x67)) (x8 (x95 x96 x32)) (x20 (x95 x67 x32)) (x78 (x95 x156 x114)) (x150 (x95 x32 x32)) (x43 (x95 x67 x96)) (x128 (x95 x114 x96)) (x110 (x95 x32 x114)) (x141 (x95 x32 x96)) (x120 (x95 x114 x67)) (x6 (x95 x67 x114)) (x102 (x95 x96 x67)) (x7 (x95 x32 x156)) (x98 (x95 x114 x156)) (x136 (x95 x67 x156)) (x153 (x95 x32 x67)) (x2 (x95 x96 x96)) (x68 (x95 x96 x156)) (x118 (x95 x156 x96))) (or (and (not (= x32 (x95 x150 x150))) (and (and (and (not (= (x95 x20 x20) x67)) (not (= (x95 x71 x71) x156))) (not (= (x95 x85 x85) x114))) (not (= (x95 x8 x8) x96)))) (or (and (and (and (and (not (= (x95 x118 x118) x156)) (not (= (x95 x43 x43) x67))) (not (= x114 (x95 x128 x128)))) (not (= (x95 x2 x2) x96))) (not (= x32 (x95 x141 x141)))) (or (or (and (and (not (= x96 (x95 x102 x102))) (and (not (= (x95 x120 x120) x114)) (and (not (= (x95 x149 x149) x156)) (not (= (x95 x77 x77) x67))))) (not (= x32 (x95 x153 x153)))) (and (and (not (= x96 (x95 x68 x68))) (and (not (= x114 (x95 x98 x98))) (and (not (= (x95 x139 x139) x156)) (not (= x67 (x95 x136 x136)))))) (not (= x32 (x95 x7 x7))))) (and (and (not (= x96 (x95 x107 x107))) (and (and (not (= x67 (x95 x6 x6))) (not (= x156 (x95 x78 x78)))) (not (= (x95 x151 x151) x114)))) (not (= x32 (x95 x110 x110)))))))))
(assert (let ((x6 (x95 x114 x67)) (x128 (x95 x96 x114)) (x120 (x95 x67 x114)) (x43 (x95 x96 x67)) (x141 (x95 x96 x32)) (x7 (x95 x156 x32)) (x153 (x95 x67 x32)) (x151 (x95 x114 x114)) (x71 (x95 x32 x156)) (x78 (x95 x114 x156)) (x68 (x95 x156 x96)) (x107 (x95 x114 x96)) (x2 (x95 x96 x96)) (x20 (x95 x32 x67)) (x118 (x95 x96 x156)) (x8 (x95 x32 x96)) (x110 (x95 x114 x32)) (x139 (x95 x156 x156)) (x149 (x95 x67 x156)) (x102 (x95 x67 x96)) (x85 (x95 x32 x114)) (x98 (x95 x156 x114)) (x77 (x95 x67 x67)) (x136 (x95 x156 x67)) (x150 (x95 x32 x32))) (and (and (and (and (and (and (and (and (or (or (or (= x139 x114) (or (= x139 x67) (= x139 x156))) (= x96 x139)) (= x139 x32)) (or (= x136 x32) (or (= x96 x136) (or (= x136 x114) (or (= x136 x156) (= x67 x136)))))) (or (or (or (= x98 x114) (or (= x98 x67) (= x156 x98))) (= x96 x98)) (= x32 x98))) (or (or (or (= x114 x68) (or (= x68 x156) (= x68 x67))) (= x68 x96)) (= x68 x32))) (or (= x7 x32) (or (or (= x114 x7) (or (= x67 x7) (= x156 x7))) (= x7 x96)))) (and (or (= x153 x32) (or (= x96 x153) (or (or (= x153 x67) (= x153 x156)) (= x114 x153)))) (and (and (or (or (= x96 x120) (or (= x114 x120) (or (= x120 x67) (= x156 x120)))) (= x32 x120)) (and (or (= x32 x77) (or (= x96 x77) (or (= x114 x77) (or (= x77 x156) (= x77 x67))))) (or (= x149 x32) (or (= x149 x96) (or (= x149 x114) (or (= x149 x156) (= x67 x149))))))) (or (or (= x96 x102) (or (= x114 x102) (or (= x67 x102) (= x156 x102)))) (= x102 x32))))) (and (or (or (or (= x114 x110) (or (= x156 x110) (= x110 x67))) (= x110 x96)) (= x32 x110)) (and (or (= x107 x32) (or (= x96 x107) (or (= x107 x114) (or (= x67 x107) (= x156 x107))))) (and (or (or (= x96 x151) (or (or (= x151 x67) (= x156 x151)) (= x151 x114))) (= x151 x32)) (and (or (or (or (or (= x6 x67) (= x6 x156)) (= x114 x6)) (= x6 x96)) (= x32 x6)) (or (= x32 x78) (or (or (= x78 x114) (or (= x67 x78) (= x78 x156))) (= x96 x78)))))))) (and (and (and (and (or (or (= x96 x43) (or (= x114 x43) (or (= x43 x156) (= x67 x43)))) (= x43 x32)) (or (or (= x96 x118) (or (= x118 x114) (or (= x118 x156) (= x118 x67)))) (= x32 x118))) (or (= x128 x32) (or (= x128 x96) (or (or (= x128 x67) (= x156 x128)) (= x114 x128))))) (or (= x2 x32) (or (or (or (= x2 x67) (= x2 x156)) (= x114 x2)) (= x2 x96)))) (or (= x141 x32) (or (or (= x114 x141) (or (= x141 x156) (= x67 x141))) (= x96 x141))))) (and (and (and (or (or (or (= x114 x85) (or (= x67 x85) (= x156 x85))) (= x96 x85)) (= x32 x85)) (and (or (or (= x96 x71) (or (= x71 x114) (or (= x71 x156) (= x71 x67)))) (= x32 x71)) (or (or (= x96 x20) (or (or (= x20 x156) (= x67 x20)) (= x114 x20))) (= x32 x20)))) (or (= x8 x32) (or (= x96 x8) (or (= x8 x114) (or (= x67 x8) (= x156 x8)))))) (or (= x150 x32) (or (or (or (= x67 x150) (= x150 x156)) (= x150 x114)) (= x96 x150)))))))
(assert (let ((x121 (x95 x67 x67)) (x81 (x95 x96 x67)) (x33 (x95 x96 x114)) (x10 (x95 x156 x67)) (x65 (x95 x156 x156)) (x41 (x95 x32 x96)) (x17 (x95 x114 x156)) (x79 (x95 x67 x96)) (x57 (x95 x114 x96)) (x4 (x95 x32 x156)) (x25 (x95 x114 x32)) (x124 (x95 x67 x32)) (x157 (x95 x32 x114)) (x129 (x95 x114 x114)) (x105 (x95 x32 x32)) (x91 (x95 x96 x32)) (x117 (x95 x156 x114)) (x146 (x95 x67 x114)) (x135 (x95 x96 x96)) (x76 (x95 x114 x67)) (x64 (x95 x156 x96)) (x94 (x95 x67 x156)) (x58 (x95 x32 x67)) (x36 (x95 x156 x32)) (x103 (x95 x96 x156))) (let ((x7 (not (= x156 x17))) (x151 (not (= x156 x79))) (x116 (not (= x4 x32))) (x1 (not (= x67 x146))) (x44 (not (= x94 x67))) (x49 (not (= x114 x157))) (x136 (not (= x94 x156))) (x85 (not (= x156 x41))) (x107 (not (= x33 x156))) (x72 (not (= x64 x96))) (x125 (not (= x121 x67))) (x90 (not (= x114 x105))) (x131 (not (= x157 x96))) (x40 (not (= x67 x36))) (x71 (not (= x157 x156))) (x31 (not (= x57 x67))) (x53 (not (= x67 x103))) (x20 (not (= x25 x156))) (x11 (not (= x146 x114))) (x143 (not (= x67 x65))) (x48 (not (= x114 x36))) (x127 (not (= x114 x33))) (x123 (not (= x117 x96))) (x148 (not (= x121 x96))) (x15 (not (= x41 x32))) (x6 (not (= x81 x156))) (x38 (not (= x67 x135))) (x82 (not (= x17 x114))) (x100 (not (= x129 x114))) (x37 (not (= x33 x96))) (x56 (not (= x65 x32))) (x120 (not (= x146 x156))) (x139 (not (= x65 x156))) (x43 (not (= x156 x4))) (x133 (not (= x81 x114))) (x86 (not (= x114 x124))) (x60 (not (= x114 x25))) (x106 (not (= x67 x33))) (x27 (not (= x65 x114))) (x130 (not (= x121 x32))) (x89 (not (= x94 x114))) (x144 (not (= x65 x96))) (x78 (not (= x156 x64))) (x145 (not (= x64 x114))) (x132 (not (= x96 x58))) (x23 (not (= x103 x32))) (x102 (not (= x129 x156))) (x28 (not (= x96 x124))) (x24 (not (= x58 x67))) (x16 (not (= x105 x67))) (x42 (not (= x114 x10))) (x66 (not (= x91 x96))) (x154 (not (= x36 x32))) (x84 (not (= x146 x96))) (x150 (not (= x156 x105))) (x119 (not (= x91 x114))) (x59 (not (= x117 x32))) (x93 (not (= x114 x135))) (x46 (not (= x81 x67))) (x34 (not (= x114 x76))) (x70 (not (= x67 x4))) (x155 (not (= x67 x79))) (x113 (not (= x96 x76))) (x112 (not (= x32 x94))) (x80 (not (= x114 x4))) (x50 (not (= x76 x67))) (x2 (not (= x156 x58))) (x35 (not (= x64 x32))) (x118 (not (= x156 x135))) (x19 (not (= x114 x121))) (x12 (not (= x32 x124))) (x126 (not (= x96 x129))) (x18 (not (= x32 x146))) (x138 (not (= x76 x32))) (x54 (not (= x81 x32))) (x75 (not (= x32 x105))) (x92 (not (= x32 x10))) (x115 (not (= x96 x105))) (x149 (not (= x117 x156))) (x52 (not (= x96 x41))) (x73 (not (= x103 x96))) (x158 (not (= x96 x57))) (x69 (not (= x58 x32))) (x30 (not (= x41 x114))) (x61 (not (= x32 x17))) (x159 (not (= x4 x96))) (x147 (not (= x67 x25))) (x45 (not (= x79 x96))) (x55 (not (= x25 x32))) (x29 (not (= x67 x129))) (x22 (not (= x96 x10))) (x108 (not (= x67 x124))) (x128 (not (= x156 x36))) (x51 (not (= x117 x114))) (x14 (not (= x114 x58))) (x87 (not (= x117 x67))) (x104 (not (= x64 x67))) (x21 (not (= x135 x96))) (x74 (not (= x32 x157))) (x110 (not (= x57 x156))) (x134 (not (= x41 x67))) (x39 (not (= x114 x57))) (x13 (not (= x17 x67))) (x101 (not (= x114 x103))) (x111 (not (= x33 x32))) (x152 (not (= x36 x96))) (x153 (not (= x156 x103))) (x8 (not (= x156 x91))) (x63 (not (= x96 x81))) (x5 (not (= x32 x129))) (x109 (not (= x67 x157))) (x99 (not (= x79 x32))) (x141 (not (= x156 x124))) (x62 (not (= x67 x10))) (x142 (not (= x79 x114))) (x98 (not (= x156 x10))) (x88 (not (= x25 x96))) (x122 (not (= x67 x91))) (x77 (not (= x156 x76))) (x68 (not (= x156 x121))) (x47 (not (= x32 x135))) (x97 (not (= x91 x32))) (x140 (not (= x96 x17))) (x83 (not (= x57 x32))) (x137 (not (= x96 x94)))) (or (and (and (and (or x15 x97) (and (or x74 x55) (and (or x116 x154) (or x12 x69)))) (or x75 x75)) (and (and (and (and (or x83 x111) (and (and (or x61 x59) (or x138 x18)) (or x5 x5))) (or x74 x55)) (and (and (or x116 x154) (and (and (and (or x56 x56) (or x92 x112)) (or x61 x59)) (or x23 x35))) (and (or x12 x69) (and (or x99 x54) (and (and (or x112 x92) (or x130 x130)) (or x18 x138)))))) (and (or x15 x97) (and (or x47 x47) (and (and (or x99 x54) (or x35 x23)) (or x111 x83)))))) (or (or (or (and (and (and (or x8 x85) (and (and (or x107 x110) (and (or x6 x151) (or x78 x153))) (or x118 x118))) (and (and (and (or x128 x43) (and (and (and (or x139 x139) (or x136 x98)) (or x7 x149)) (or x153 x78))) (and (and (and (or x77 x120) (and (or x68 x68) (or x98 x136))) (or x151 x6)) (or x2 x141))) (and (and (or x107 x110) (and (and (or x77 x120) (or x7 x149)) (or x102 x102))) (or x20 x71)))) (and (or x150 x150) (and (and (or x20 x71) (and (or x43 x128) (or x2 x141))) (or x8 x85)))) (and (and (and (and (and (and (or x53 x104) (and (and (or x143 x143) (or x44 x62)) (or x87 x13))) (or x40 x70)) (and (and (and (and (or x125 x125) (or x62 x44)) (or x50 x1)) (or x155 x46)) (or x24 x108))) (and (or x109 x147) (and (and (or x29 x29) (and (or x13 x87) (or x50 x1))) (or x106 x31)))) (and (or x122 x134) (and (and (or x106 x31) (and (or x155 x46) (or x53 x104))) (or x38 x38)))) (and (or x16 x16) (and (and (or x109 x147) (and (or x24 x108) (or x70 x40))) (or x122 x134))))) (and (and (and (or x30 x119) (and (or x60 x49) (and (or x48 x80) (or x14 x86)))) (or x90 x90)) (and (and (and (or x60 x49) (and (and (and (or x11 x34) (or x82 x51)) (or x100 x100)) (or x39 x127))) (and (and (or x80 x48) (and (and (or x51 x82) (and (or x89 x42) (or x27 x27))) (or x145 x101))) (and (or x86 x14) (and (or x142 x133) (and (and (or x19 x19) (or x89 x42)) (or x11 x34)))))) (and (or x30 x119) (and (and (and (or x145 x101) (or x142 x133)) (or x127 x39)) (or x93 x93)))))) (and (and (and (or x52 x66) (and (or x21 x21) (and (or x158 x37) (and (or x45 x63) (or x72 x73))))) (and (and (and (and (or x63 x45) (and (and (or x137 x22) (or x148 x148)) (or x84 x113))) (or x28 x132)) (and (and (or x73 x72) (and (and (or x22 x137) (or x144 x144)) (or x140 x123))) (or x159 x152))) (and (or x131 x88) (and (or x37 x158) (and (or x126 x126) (and (or x123 x140) (or x113 x84))))))) (and (and (and (or x88 x131) (and (or x28 x132) (or x152 x159))) (or x66 x52)) (or x115 x115))))))))
(assert (and (and (and (not (= x114 x96)) (and (and (not (= x67 x96)) (and (and (not (= x32 x156)) (and (and (not (= x67 x156)) (not (= x114 x156))) (not (= x96 x156)))) (not (= x114 x67)))) (not (= x67 x32)))) (not (= x114 x32))) (not (= x96 x32))))
(assert (or (and (not (= (x95 x32 (x95 x32 x32)) x32)) (and (and (and (not (= x156 (x95 x32 (x95 x32 x156)))) (not (= (x95 x32 (x95 x32 x67)) x67))) (not (= (x95 x32 (x95 x32 x114)) x114))) (not (= (x95 x32 (x95 x32 x96)) x96)))) (or (or (and (not (= x32 (x95 x114 (x95 x114 x32)))) (and (and (and (not (= x67 (x95 x114 (x95 x114 x67)))) (not (= x156 (x95 x114 (x95 x114 x156))))) (not (= x114 (x95 x114 (x95 x114 x114))))) (not (= (x95 x114 (x95 x114 x96)) x96)))) (or (and (not (= (x95 x67 (x95 x67 x32)) x32)) (and (and (and (not (= x156 (x95 x67 (x95 x67 x156)))) (not (= (x95 x67 (x95 x67 x67)) x67))) (not (= (x95 x67 (x95 x67 x114)) x114))) (not (= x96 (x95 x67 (x95 x67 x96)))))) (and (and (and (not (= (x95 x156 (x95 x156 x114)) x114)) (and (not (= x67 (x95 x156 (x95 x156 x67)))) (not (= x156 (x95 x156 (x95 x156 x156)))))) (not (= (x95 x156 (x95 x156 x96)) x96))) (not (= (x95 x156 (x95 x156 x32)) x32))))) (and (and (not (= x96 (x95 x96 (x95 x96 x96)))) (and (not (= (x95 x96 (x95 x96 x114)) x114)) (and (not (= x67 (x95 x96 (x95 x96 x67)))) (not (= (x95 x96 (x95 x96 x156)) x156))))) (not (= x32 (x95 x96 (x95 x96 x32))))))))
(assert (or (or (and (= (x95 x96 (x95 x96 x32)) x32) (and (and (= (x95 x96 (x95 x96 x114)) x114) (and (= (x95 x96 (x95 x96 x67)) x67) (= (x95 x96 (x95 x96 x156)) x156))) (= x96 (x95 x96 (x95 x96 x96))))) (or (or (and (and (and (= (x95 x156 (x95 x156 x114)) x114) (and (= x156 (x95 x156 (x95 x156 x156))) (= x67 (x95 x156 (x95 x156 x67))))) (= (x95 x156 (x95 x156 x96)) x96)) (= x32 (x95 x156 (x95 x156 x32)))) (and (and (and (and (= x156 (x95 x67 (x95 x67 x156))) (= (x95 x67 (x95 x67 x67)) x67)) (= x114 (x95 x67 (x95 x67 x114)))) (= (x95 x67 (x95 x67 x96)) x96)) (= x32 (x95 x67 (x95 x67 x32))))) (and (= (x95 x114 (x95 x114 x32)) x32) (and (= (x95 x114 (x95 x114 x96)) x96) (and (= (x95 x114 (x95 x114 x114)) x114) (and (= x156 (x95 x114 (x95 x114 x156))) (= x67 (x95 x114 (x95 x114 x67))))))))) (and (and (and (= (x95 x32 (x95 x32 x114)) x114) (and (= (x95 x32 (x95 x32 x67)) x67) (= x156 (x95 x32 (x95 x32 x156))))) (= x96 (x95 x32 (x95 x32 x96)))) (= (x95 x32 (x95 x32 x32)) x32))))
(check-sat)
(exit)
